param scenario_id          := 1133;
param enable_rps            :=     1;
param enable_carbon_cap       :=     0;
param enable_tx_constraint    :=                     0;
param enable_force_renewables :=                        0;
param num_years_per_period	:=                 4;
param present_year  			:=      2011;
